NAME : cgl_33.9073.tour
COMMENT : Length = 9073
COMMENT : Found by LKH-3 [Keld Helsgaun] Fri Nov  8 17:38:18 2024
TYPE : TOUR
DIMENSION : 34
TOUR_SECTION
9
14
15
21
20
19
18
22
17
16
24
23
25
26
28
27
29
30
33
31
32
34
3
2
1
4
5
6
11
7
8
10
13
12
-1
EOF
